w = 19;
n = 14;
measures = [|3, 19,
|3, 13,
|3, 11,
|4, 8,
|3, 10,
|3, 9,
|3, 8,
|4, 6,
|3, 7,
|4, 5,
|3, 6,
|3, 5,
|3, 4,
|3, 3,
|];
initial_x = [0, 3, 6, 9, 13, 16, 0, 3, 7, 10, 14, 0, 3, 6];
initial_y = [0, 0, 0, 0, 0, 0, 19, 19, 19, 19, 19, 27, 27, 27];